Mg8 C120                                
   1.00000000000000     
     0.0000000000000000    9.2239999771000001    0.0000000000000000
    -5.0983693477000003    0.0000000000000000   15.2197651130999976
    26.9645165061535970    0.0000000000000000    9.0326666284879966
   Mg   C 
     8   120
Direct
  0.2623548522390487  0.0812682690793748  0.7281765104360547
  0.2376451477609512  0.7426479063482732  0.5685193115657539
  0.7623548522390485  0.2426479063482732  0.5685193115657539
  0.7376451477609515  0.5812682690793749  0.7281765104360547
  0.2624218503674887  0.7427829737999372  0.7281080135843402
  0.2375781496325114  0.0811332016277112  0.5685878084174684
  0.7624218503674881  0.5811332016277109  0.5685878084174684
  0.7375781496325119  0.2427829737999369  0.7281080135843402
  0.2961505166149681  0.3679368358027174  0.7702710303762285
  0.2038494833850318  0.4559793396249235  0.5264247916255730
  0.7961505166149682  0.9559793396249233  0.5264247916255730
  0.7038494833850318  0.8679368358027176  0.7702710303762285
  0.2961897669496120  0.4559946509702267  0.7703256095922359
  0.2038102330503949  0.3679215244574214  0.5263702124095726
  0.7961897669496046  0.8679215244574213  0.5263702124095726
  0.7038102330503954  0.9559946509702267  0.7703256095922359
  0.1491327868199559  0.3396382301308114  0.7599209543639391
  0.3508672131800439  0.4842779452968367  0.5367748676378694
  0.6491327868199561  0.9842779452968368  0.5367748676378694
  0.8508672131800439  0.8396382301308113  0.7599209543639391
  0.1491729306604882  0.4843552311760163  0.7599834351870519
  0.3508270693395117  0.3395609442516247  0.5367123868147566
  0.6491729306604880  0.8395609442516251  0.5367123868147566
  0.8508270693395191  0.9843552311760159  0.7599834351870519
  0.0594209971331955  0.4120118153298411  0.7539631402791909
  0.4405790028668045  0.4119043600978070  0.5427326817226177
  0.5594209971332026  0.9119043600978072  0.5427326817226177
  0.9405790028667974  0.9120118153298409  0.7539631402791909
  0.4145453323915038  0.5002230719974754  0.7494670652626104
  0.0854546676084964  0.3236931034301726  0.5472287567391981
  0.9145453323915035  0.8236931034301727  0.5472287567391981
  0.5854546676084965  0.0002230719974754  0.7494670652626104
  0.4144677332268590  0.3236773118413028  0.7494305783187377
  0.0855322667731411  0.5002388635863383  0.5472652436830708
  0.9144677332268590  0.0002388635863380  0.5472652436830708
  0.5855322667731410  0.8236773118413029  0.7494305783187377
  0.1222125143682202  0.2689377522373690  0.7324360508484510
  0.3777874856317798  0.5549784231902787  0.5642597711533576
  0.6222125143682206  0.0549784231902791  0.5642597711533576
  0.8777874856317794  0.7689377522373694  0.7324360508484510
  0.1222161189340446  0.5550889758793393  0.7325079967392281
  0.3777838810659554  0.2688271995483086  0.5641878252625805
  0.6222161189340448  0.7688271995483088  0.5641878252625805
  0.8777838810659552  0.0550889758793394  0.7325079967392281
  0.4631753803675194  0.9565323439424764  0.7300636104820906
  0.0368246196324737  0.8673838314851645  0.5666322115197180
  0.9631753803675263  0.3673838314851644  0.5666322115197180
  0.5368246196324808  0.4565323439424765  0.7300636104820906
  0.4631260122938738  0.8673145227338299  0.7300691481702659
  0.0368739877061262  0.9566016526938252  0.5666266738315426
  0.9631260122938810  0.4566016526938250  0.5666266738315426
  0.5368739877061190  0.3673145227338231  0.7300691481702659
  0.0542197071831526  0.9120079167455180  0.7209110858559556
  0.4457802928168544  0.9119082586821230  0.5757847361458529
  0.5542197071831455  0.4119082586821227  0.5757847361458529
  0.9457802928168545  0.4120079167455182  0.7209110858559556
  0.3855438576364575  0.2534450875786858  0.7197744381233818
  0.1144561423635423  0.5704710878489626  0.5769213838784196
  0.8855438576364506  0.0704710878489623  0.5769213838784196
  0.6144561423635494  0.7534450875786854  0.7197744381233818
  0.3856426336964177  0.5704777877637652  0.7198195990241050
  0.1143573663035895  0.2534383876638827  0.5768762229777036
  0.8856426336964105  0.7534383876638828  0.5768762229777036
  0.6143573663035895  0.0704777877637654  0.7198195990241050
  0.2414163514244451  0.2148472843884390  0.7160722876335640
  0.2585836485755548  0.6090688910392025  0.5806235343682375
  0.7414163514244457  0.1090688910391949  0.5806235343682375
  0.7585836485755543  0.7148472843884385  0.7160722876335639
  0.2415175197022163  0.6090853709308619  0.7161175326899800
  0.2584824802977837  0.2148308044967788  0.5805782893118285
  0.7415175197022160  0.7148308044967790  0.5805782893118285
  0.7584824802977840  0.1090853709308621  0.7161175326899800
  0.0030514541826232  0.2672945566895360  0.6997763742642104
  0.4969485458173766  0.5566216187381121  0.5969194477375982
  0.5030514541826232  0.0566216187381120  0.5969194477375982
  0.9969485458173768  0.7672945566895359  0.6997763742642104
  0.0030296950054382  0.5567552782452889  0.6998278789333159
  0.4969703049945617  0.2671608971823592  0.5968679430684856
  0.5030296950054379  0.7671608971823591  0.5968679430684856
  0.9969703049945621  0.0567552782452889  0.6998278789333159
  0.0866935221190126  0.8382094622265361  0.6941295149678071
  0.4133064778809946  0.9857067132011048  0.6025663070339944
  0.5866935221190059  0.4857067132011046  0.6025663070339944
  0.9133064778809941  0.3382094622265363  0.6941295149678071
  0.0867586241322697  0.9858402705479650  0.6941763186443466
  0.4132413758677301  0.8380759048796760  0.6025195033574549
  0.5867586241322695  0.3380759048796759  0.6025195033574549
  0.9132413758677305  0.4858402705479650  0.6941763186443466
  0.4141228099571771  0.8212727050121541  0.6888637698923981
  0.0858771900428228  0.0026434704154942  0.6078320521094034
  0.9141228099571844  0.5026434704154940  0.6078320521094034
  0.5858771900428156  0.3212727050121538  0.6888637698923981
  0.4140147808475876  0.0026443259537045  0.6889060834447187
  0.0859852191524125  0.8212718494739433  0.6077897385570827
  0.9140147808475804  0.3212718494739436  0.6077897385570827
  0.5859852191524196  0.5026443259537048  0.6889060834447187
  0.4863486802799671  0.2526527522283650  0.6828067844171889
  0.0136513197200328  0.5712634231992831  0.6138890375846126
  0.9863486802799671  0.0712634231992831  0.6138890375846126
  0.5136513197200329  0.7526527522283649  0.6828067844171889
  0.4864094882731913  0.5712568820348990  0.6828382411299048
  0.0135905117268087  0.2526592933927488  0.6138575808719038
  0.9864094882731984  0.7526592933927491  0.6138575808719038
  0.5135905117268016  0.0712568820348992  0.6828382411299048
  0.2016027279565140  0.1960939490531920  0.6663896163428006
  0.2983972720434858  0.6278222263744488  0.6303062056590080
  0.7016027279565140  0.1278222263744490  0.6303062056590080
  0.7983972720434860  0.6960939490531921  0.6663896163428006
  0.2016413699373158  0.6278350870059585  0.6664345478370373
  0.2983586300626840  0.1960810884216896  0.6302612741647642
  0.7016413699373087  0.6960810884216896  0.6302612741647642
  0.7983586300626913  0.1278350870059584  0.6664345478370373
  0.0388111037729787  0.2067939919892216  0.6592092411579944
  0.4611888962270213  0.6171221834384194  0.6374865808438142
  0.5388111037729788  0.1171221834384194  0.6374865808438142
  0.9611888962270212  0.7067939919892215  0.6592092411579944
  0.0388279038760611  0.6172022279809658  0.6592317394370921
  0.4611720961239389  0.2067139474466825  0.6374640825647164
  0.5388279038760609  0.7067139474466823  0.6374640825647164
  0.9611720961239320  0.1172022279809655  0.6592317394370921
  0.3375296246303441  0.8621325839477156  0.6485262918358247
  0.1624703753696558  0.9617835914799324  0.6481695301659839
  0.8375296246303443  0.4617835914799323  0.6481695301659839
  0.6624703753696628  0.3621325839477157  0.6485262918358247
  0.3375868320493674  0.9617050333553384  0.6485584377971179
  0.1624131679506325  0.8622111420723025  0.6481373842046907
  0.8375868320493678  0.3622111420723023  0.6481373842046907
  0.6624131679506322  0.4617050333553386  0.6485584377971179
 
  0.00000000E+00  0.00000000E+00  0.00000000E+00
  0.00000000E+00  0.00000000E+00  0.00000000E+00
  0.00000000E+00  0.00000000E+00  0.00000000E+00
  0.00000000E+00  0.00000000E+00  0.00000000E+00
  0.00000000E+00  0.00000000E+00  0.00000000E+00
  0.00000000E+00  0.00000000E+00  0.00000000E+00
  0.00000000E+00  0.00000000E+00  0.00000000E+00
  0.00000000E+00  0.00000000E+00  0.00000000E+00
  0.00000000E+00  0.00000000E+00  0.00000000E+00
  0.00000000E+00  0.00000000E+00  0.00000000E+00
  0.00000000E+00  0.00000000E+00  0.00000000E+00
  0.00000000E+00  0.00000000E+00  0.00000000E+00
  0.00000000E+00  0.00000000E+00  0.00000000E+00
  0.00000000E+00  0.00000000E+00  0.00000000E+00
  0.00000000E+00  0.00000000E+00  0.00000000E+00
  0.00000000E+00  0.00000000E+00  0.00000000E+00
  0.00000000E+00  0.00000000E+00  0.00000000E+00
  0.00000000E+00  0.00000000E+00  0.00000000E+00
  0.00000000E+00  0.00000000E+00  0.00000000E+00
  0.00000000E+00  0.00000000E+00  0.00000000E+00
  0.00000000E+00  0.00000000E+00  0.00000000E+00
  0.00000000E+00  0.00000000E+00  0.00000000E+00
  0.00000000E+00  0.00000000E+00  0.00000000E+00
  0.00000000E+00  0.00000000E+00  0.00000000E+00
  0.00000000E+00  0.00000000E+00  0.00000000E+00
  0.00000000E+00  0.00000000E+00  0.00000000E+00
  0.00000000E+00  0.00000000E+00  0.00000000E+00
  0.00000000E+00  0.00000000E+00  0.00000000E+00
  0.00000000E+00  0.00000000E+00  0.00000000E+00
  0.00000000E+00  0.00000000E+00  0.00000000E+00
  0.00000000E+00  0.00000000E+00  0.00000000E+00
  0.00000000E+00  0.00000000E+00  0.00000000E+00
  0.00000000E+00  0.00000000E+00  0.00000000E+00
  0.00000000E+00  0.00000000E+00  0.00000000E+00
  0.00000000E+00  0.00000000E+00  0.00000000E+00
  0.00000000E+00  0.00000000E+00  0.00000000E+00
  0.00000000E+00  0.00000000E+00  0.00000000E+00
  0.00000000E+00  0.00000000E+00  0.00000000E+00
  0.00000000E+00  0.00000000E+00  0.00000000E+00
  0.00000000E+00  0.00000000E+00  0.00000000E+00
  0.00000000E+00  0.00000000E+00  0.00000000E+00
  0.00000000E+00  0.00000000E+00  0.00000000E+00
  0.00000000E+00  0.00000000E+00  0.00000000E+00
  0.00000000E+00  0.00000000E+00  0.00000000E+00
  0.00000000E+00  0.00000000E+00  0.00000000E+00
  0.00000000E+00  0.00000000E+00  0.00000000E+00
  0.00000000E+00  0.00000000E+00  0.00000000E+00
  0.00000000E+00  0.00000000E+00  0.00000000E+00
  0.00000000E+00  0.00000000E+00  0.00000000E+00
  0.00000000E+00  0.00000000E+00  0.00000000E+00
  0.00000000E+00  0.00000000E+00  0.00000000E+00
  0.00000000E+00  0.00000000E+00  0.00000000E+00
  0.00000000E+00  0.00000000E+00  0.00000000E+00
  0.00000000E+00  0.00000000E+00  0.00000000E+00
  0.00000000E+00  0.00000000E+00  0.00000000E+00
  0.00000000E+00  0.00000000E+00  0.00000000E+00
  0.00000000E+00  0.00000000E+00  0.00000000E+00
  0.00000000E+00  0.00000000E+00  0.00000000E+00
  0.00000000E+00  0.00000000E+00  0.00000000E+00
  0.00000000E+00  0.00000000E+00  0.00000000E+00
  0.00000000E+00  0.00000000E+00  0.00000000E+00
  0.00000000E+00  0.00000000E+00  0.00000000E+00
  0.00000000E+00  0.00000000E+00  0.00000000E+00
  0.00000000E+00  0.00000000E+00  0.00000000E+00
  0.00000000E+00  0.00000000E+00  0.00000000E+00
  0.00000000E+00  0.00000000E+00  0.00000000E+00
  0.00000000E+00  0.00000000E+00  0.00000000E+00
  0.00000000E+00  0.00000000E+00  0.00000000E+00
  0.00000000E+00  0.00000000E+00  0.00000000E+00
  0.00000000E+00  0.00000000E+00  0.00000000E+00
  0.00000000E+00  0.00000000E+00  0.00000000E+00
  0.00000000E+00  0.00000000E+00  0.00000000E+00
  0.00000000E+00  0.00000000E+00  0.00000000E+00
  0.00000000E+00  0.00000000E+00  0.00000000E+00
  0.00000000E+00  0.00000000E+00  0.00000000E+00
  0.00000000E+00  0.00000000E+00  0.00000000E+00
  0.00000000E+00  0.00000000E+00  0.00000000E+00
  0.00000000E+00  0.00000000E+00  0.00000000E+00
  0.00000000E+00  0.00000000E+00  0.00000000E+00
  0.00000000E+00  0.00000000E+00  0.00000000E+00
  0.00000000E+00  0.00000000E+00  0.00000000E+00
  0.00000000E+00  0.00000000E+00  0.00000000E+00
  0.00000000E+00  0.00000000E+00  0.00000000E+00
  0.00000000E+00  0.00000000E+00  0.00000000E+00
  0.00000000E+00  0.00000000E+00  0.00000000E+00
  0.00000000E+00  0.00000000E+00  0.00000000E+00
  0.00000000E+00  0.00000000E+00  0.00000000E+00
  0.00000000E+00  0.00000000E+00  0.00000000E+00
  0.00000000E+00  0.00000000E+00  0.00000000E+00
  0.00000000E+00  0.00000000E+00  0.00000000E+00
  0.00000000E+00  0.00000000E+00  0.00000000E+00
  0.00000000E+00  0.00000000E+00  0.00000000E+00
  0.00000000E+00  0.00000000E+00  0.00000000E+00
  0.00000000E+00  0.00000000E+00  0.00000000E+00
  0.00000000E+00  0.00000000E+00  0.00000000E+00
  0.00000000E+00  0.00000000E+00  0.00000000E+00
  0.00000000E+00  0.00000000E+00  0.00000000E+00
  0.00000000E+00  0.00000000E+00  0.00000000E+00
  0.00000000E+00  0.00000000E+00  0.00000000E+00
  0.00000000E+00  0.00000000E+00  0.00000000E+00
  0.00000000E+00  0.00000000E+00  0.00000000E+00
  0.00000000E+00  0.00000000E+00  0.00000000E+00
  0.00000000E+00  0.00000000E+00  0.00000000E+00
  0.00000000E+00  0.00000000E+00  0.00000000E+00
  0.00000000E+00  0.00000000E+00  0.00000000E+00
  0.00000000E+00  0.00000000E+00  0.00000000E+00
  0.00000000E+00  0.00000000E+00  0.00000000E+00
  0.00000000E+00  0.00000000E+00  0.00000000E+00
  0.00000000E+00  0.00000000E+00  0.00000000E+00
  0.00000000E+00  0.00000000E+00  0.00000000E+00
  0.00000000E+00  0.00000000E+00  0.00000000E+00
  0.00000000E+00  0.00000000E+00  0.00000000E+00
  0.00000000E+00  0.00000000E+00  0.00000000E+00
  0.00000000E+00  0.00000000E+00  0.00000000E+00
  0.00000000E+00  0.00000000E+00  0.00000000E+00
  0.00000000E+00  0.00000000E+00  0.00000000E+00
  0.00000000E+00  0.00000000E+00  0.00000000E+00
  0.00000000E+00  0.00000000E+00  0.00000000E+00
  0.00000000E+00  0.00000000E+00  0.00000000E+00
  0.00000000E+00  0.00000000E+00  0.00000000E+00
  0.00000000E+00  0.00000000E+00  0.00000000E+00
  0.00000000E+00  0.00000000E+00  0.00000000E+00
  0.00000000E+00  0.00000000E+00  0.00000000E+00
  0.00000000E+00  0.00000000E+00  0.00000000E+00
  0.00000000E+00  0.00000000E+00  0.00000000E+00
  0.00000000E+00  0.00000000E+00  0.00000000E+00
  0.00000000E+00  0.00000000E+00  0.00000000E+00
  0.00000000E+00  0.00000000E+00  0.00000000E+00
